nvertices = 12;
owners    = [1,0,0,1,0,0,1,0,1,0,1,0];
colors    = [2,1,2,2,1,2,2,4,3,4,3,4];
nedges    = 24;
sources   = [1,1,2,3,3,3,4,4,4,5,6,6,6,7,8,9,9,9,10,10,11,11,11,12];
targets   = [2,3,3,1,4,9,3,5,6,6,4,7,11,6,9,8,10,3,9,11,10,12,6,11];
